c description: Subset cardinality formula for fast_gnp_random_graph(2,8,0.9)
c generator: CNFgen (0.9.0)
c copyright: (C) 2012-2020 Massimo Lauria <massimo.lauria@uniroma1.it>
c url: https://massimolauria.net/cnfgen
c
p cnf 16 120
1 2 3 4 5 0
1 2 3 4 6 0
1 2 3 4 7 0
1 2 3 4 8 0
1 2 3 5 6 0
1 2 3 5 7 0
1 2 3 5 8 0
1 2 3 6 7 0
1 2 3 6 8 0
1 2 3 7 8 0
1 2 4 5 6 0
1 2 4 5 7 0
1 2 4 5 8 0
1 2 4 6 7 0
1 2 4 6 8 0
1 2 4 7 8 0
1 2 5 6 7 0
1 2 5 6 8 0
1 2 5 7 8 0
1 2 6 7 8 0
1 3 4 5 6 0
1 3 4 5 7 0
1 3 4 5 8 0
1 3 4 6 7 0
1 3 4 6 8 0
1 3 4 7 8 0
1 3 5 6 7 0
1 3 5 6 8 0
1 3 5 7 8 0
1 3 6 7 8 0
1 4 5 6 7 0
1 4 5 6 8 0
1 4 5 7 8 0
1 4 6 7 8 0
1 5 6 7 8 0
2 3 4 5 6 0
2 3 4 5 7 0
2 3 4 5 8 0
2 3 4 6 7 0
2 3 4 6 8 0
2 3 4 7 8 0
2 3 5 6 7 0
2 3 5 6 8 0
2 3 5 7 8 0
2 3 6 7 8 0
2 4 5 6 7 0
2 4 5 6 8 0
2 4 5 7 8 0
2 4 6 7 8 0
2 5 6 7 8 0
3 4 5 6 7 0
3 4 5 6 8 0
3 4 5 7 8 0
3 4 6 7 8 0
3 5 6 7 8 0
4 5 6 7 8 0
9 10 11 12 13 0
9 10 11 12 14 0
9 10 11 12 15 0
9 10 11 12 16 0
9 10 11 13 14 0
9 10 11 13 15 0
9 10 11 13 16 0
9 10 11 14 15 0
9 10 11 14 16 0
9 10 11 15 16 0
9 10 12 13 14 0
9 10 12 13 15 0
9 10 12 13 16 0
9 10 12 14 15 0
9 10 12 14 16 0
9 10 12 15 16 0
9 10 13 14 15 0
9 10 13 14 16 0
9 10 13 15 16 0
9 10 14 15 16 0
9 11 12 13 14 0
9 11 12 13 15 0
9 11 12 13 16 0
9 11 12 14 15 0
9 11 12 14 16 0
9 11 12 15 16 0
9 11 13 14 15 0
9 11 13 14 16 0
9 11 13 15 16 0
9 11 14 15 16 0
9 12 13 14 15 0
9 12 13 14 16 0
9 12 13 15 16 0
9 12 14 15 16 0
9 13 14 15 16 0
10 11 12 13 14 0
10 11 12 13 15 0
10 11 12 13 16 0
10 11 12 14 15 0
10 11 12 14 16 0
10 11 12 15 16 0
10 11 13 14 15 0
10 11 13 14 16 0
10 11 13 15 16 0
10 11 14 15 16 0
10 12 13 14 15 0
10 12 13 14 16 0
10 12 13 15 16 0
10 12 14 15 16 0
10 13 14 15 16 0
11 12 13 14 15 0
11 12 13 14 16 0
11 12 13 15 16 0
11 12 14 15 16 0
11 13 14 15 16 0
12 13 14 15 16 0
-1 -9 0
-2 -10 0
-3 -11 0
-4 -12 0
-5 -13 0
-6 -14 0
-7 -15 0
-8 -16 0